************************************************************************
file with basedata            : md368_.bas
initial value random generator: 292635797
************************************************************************
projects                      :  1
jobs (incl. supersource/sink ):  22
horizon                       :  148
RESOURCES
  - renewable                 :  2   R
  - nonrenewable              :  2   N
  - doubly constrained        :  0   D
************************************************************************
PROJECT INFORMATION:
pronr.  #jobs rel.date duedate tardcost  MPM-Time
    1     20      0       24       13       24
************************************************************************
PRECEDENCE RELATIONS:
jobnr.    #modes  #successors   successors
   1        1          3           2   3   4
   2        3          3           7  12  18
   3        3          3           8  17  21
   4        3          2           5  17
   5        3          2           6  11
   6        3          3          15  19  21
   7        3          3          10  13  16
   8        3          3           9  11  12
   9        3          3          10  13  14
  10        3          1          15
  11        3          2          13  14
  12        3          2          15  16
  13        3          1          19
  14        3          2          16  18
  15        3          1          20
  16        3          1          20
  17        3          1          19
  18        3          1          20
  19        3          1          22
  20        3          1          22
  21        3          1          22
  22        1          0        
************************************************************************
REQUESTS/DURATIONS:
jobnr. mode duration  R 1  R 2  N 1  N 2
------------------------------------------------------------------------
  1      1     0       0    0    0    0
  2      1     2       4   10   10   10
         2     5       4    7    6    7
         3     6       3    6    3    7
  3      1     1       4    7    6    6
         2     2       3    4    5    6
         3     4       1    3    3    4
  4      1     3       8    1   10    8
         2     9       8    1    9    7
         3    10       8    1    9    5
  5      1     1       6    3   10    5
         2     5       5    2    7    4
         3     9       3    2    3    1
  6      1     2       8    9   10    2
         2     4       5    7    8    2
         3     8       3    5    8    1
  7      1     4       1    8    4   10
         2     5       1    8    4    7
         3     8       1    7    2    3
  8      1     8       5    8    5    4
         2     9       5    8    4    4
         3    10       1    8    4    4
  9      1     4       6    5   10    6
         2     5       6    5    9    6
         3     6       3    4    8    5
 10      1     1       3    7    8    6
         2     1       3    6    8    7
         3     2       2    5    7    6
 11      1     2      10    8    5    7
         2     3      10    6    5    7
         3     4       9    6    5    6
 12      1     5       7    8    4    9
         2     6       7    7    4    9
         3     7       6    5    3    9
 13      1     4       3    3    5    5
         2     9       3    3    4    4
         3    10       2    3    4    3
 14      1     2       7    5   10    9
         2     3       6    5    9    9
         3     9       5    5    7    6
 15      1     3      10    8    6    5
         2     5       8    7    5    4
         3     7       7    6    4    4
 16      1     1       5    9    4    5
         2     9       5    5    2    4
         3    10       5    2    1    3
 17      1     1       8    3    8    8
         2     5       8    3    4    6
         3     7       6    2    4    3
 18      1     5       3    5    7    9
         2     5       4    4    9    8
         3     7       3    4    4    7
 19      1     2       7    5    5    3
         2     5       6    5    4    3
         3     8       4    5    4    2
 20      1     4       8    4    8    7
         2     5       6    3    5    6
         3     7       1    2    5    4
 21      1     4       9    6    3    9
         2     8       9    5    3    9
         3     9       7    5    1    8
 22      1     0       0    0    0    0
************************************************************************
RESOURCEAVAILABILITIES:
  R 1  R 2  N 1  N 2
   32   27  115  113
************************************************************************
MAXIMAL LAGS:
from  to  type  delay
    1   22   ES      0
    1    2   ES      0
    2   22   ES      0
    1    3   ES      0
    3   22   ES      0
    1    4   ES      0
    4   22   ES      0
    1    5   ES      0
    5   22   ES      0
    1    6   ES      0
    6   22   ES      0
    1    7   ES      0
    7   22   ES      0
    1    8   ES      0
    8   22   ES      0
    1    9   ES      0
    9   22   ES      0
    1   10   ES      0
   10   22   ES      0
    1   11   ES      0
   11   22   ES      0
    1   12   ES      0
   12   22   ES      0
    1   13   ES      0
   13   22   ES      0
    1   14   ES      0
   14   22   ES      0
    1   15   ES      0
   15   22   ES      0
    1   16   ES      0
   16   22   ES      0
    1   17   ES      0
   17   22   ES      0
    1   18   ES      0
   18   22   ES      0
    1   19   ES      0
   19   22   ES      0
    1   20   ES      0
   20   22   ES      0
    1   21   ES      0
   21   22   ES      0
    1   22   ES      0
    2    7   SS     -9
    2    7   SE     -5
    2    7   ES     11
    2    7   EE      0
    2   12   SS      8
    2   12   SE      6
    2   12   ES     -6
    2   12   EE    -11
    2   18   SS    -11
    2   18   SE     -1
    2   18   ES     -8
    2   18   EE     -7
    3    8   SS    -10
    3    8   SE      9
    3    8   ES     -3
    3    8   EE     -4
    3   17   SS     -7
    3   17   SE      8
    3   17   ES      1
    3   17   EE      2
    3   21   SS      8
    3   21   SE     -5
    3   21   ES     11
    3   21   EE     12
    4    5   SS     -1
    4    5   SE     -6
    4    5   ES      5
    4    5   EE     -4
    4   17   SS      9
    4   17   SE     -8
    4   17   ES     -2
    4   17   EE     12
    5    6   SS      1
    5    6   SE     -9
    5    6   ES     -9
    5    6   EE      1
    5   11   SS     -9
    5   11   SE      9
    5   11   ES     -2
    5   11   EE      9
    6   15   SS     12
    6   15   SE      7
    6   15   ES      6
    6   15   EE     10
    6   19   SS      7
    6   19   SE     -3
    6   19   ES     -4
    6   19   EE     11
    6   21   SS     -8
    6   21   SE      1
    6   21   ES     10
    6   21   EE    -10
    7   10   SS      5
    7   10   SE     -4
    7   10   ES     -2
    7   10   EE     -2
    7   13   SS     -6
    7   13   SE      2
    7   13   ES     12
    7   13   EE     12
    7   16   SS     -2
    7   16   SE      5
    7   16   ES     -8
    7   16   EE      0
    8    9   SS      4
    8    9   SE     -8
    8    9   ES     11
    8    9   EE      8
    8   11   SS      7
    8   11   SE     -1
    8   11   ES    -11
    8   11   EE      5
    8   12   SS     -9
    8   12   SE     -4
    8   12   ES      7
    8   12   EE      6
    9   10   SS      9
    9   10   SE     -3
    9   10   ES    -11
    9   10   EE     -7
    9   13   SS     -6
    9   13   SE     -8
    9   13   ES     -6
    9   13   EE     -1
    9   14   SS      5
    9   14   SE     -1
    9   14   ES      6
    9   14   EE     -5
   10   15   SS     -1
   10   15   SE      4
   10   15   ES    -11
   10   15   EE     10
   11   13   SS     -6
   11   13   SE      9
   11   13   ES     11
   11   13   EE      8
   11   14   SS     -2
   11   14   SE      8
   11   14   ES     -7
   11   14   EE      4
   12   15   SS      4
   12   15   SE    -12
   12   15   ES     -2
   12   15   EE    -12
   12   16   SS      3
   12   16   SE     -2
   12   16   ES    -11
   12   16   EE      3
   13   19   SS     10
   13   19   SE      9
   13   19   ES      4
   13   19   EE    -10
   14   16   SS      6
   14   16   SE      9
   14   16   ES      8
   14   16   EE      2
   14   18   SS     -6
   14   18   SE     -1
   14   18   ES     -4
   14   18   EE     -3
   15   20   SS     -8
   15   20   SE     -1
   15   20   ES     -7
   15   20   EE     -4
   16   20   SS     10
   16   20   SE     10
   16   20   ES      3
   16   20   EE      3
   17   19   SS      3
   17   19   SE      3
   17   19   ES     -4
   17   19   EE     -3
   18   20   SS     12
   18   20   SE     -4
   18   20   ES      6
   18   20   EE      0
************************************************************************
